ilp_joint_2/output/camouflage_ilp.lp
Maximize
  0.0183145213954832 Z_128_1_0 + 0.366199867839346 Z_128_1_1
   + 0.00346796162314833 Z_128_1_2 + 0.0213615929316855 Z_128_1_3
   + 0.00146373387711279 Z_38_1_0 + 0.00483066055915488 Z_38_1_1
   + 0.1497465893377062 Z_38_1_2 + 0.4476577868791057 Z_38_1_3
   + 0.00146373387711279 Z_38_2_0 + 0.00483066055915488 Z_38_2_1
   + 0.1497465893377062 Z_38_2_2 + 0.4476577868791057 Z_38_2_3
   + 0.0551860467247576 Z_134_1_0 + 0.336393533617926 Z_134_1_1
   + 0.00463105941468306 Z_134_1_2 + 0.1044111630022751 Z_134_1_3 + [
   1.70445e-06 Z_128_1_0 * Z_38_1_0 + 1.70445e-06 Z_128_1_0 * Z_38_2_0
   + 0.1459301613793145 Z_128_1_0 * Z_134_1_0
   + 1.70445e-06 Z_128_1_1 * Z_38_1_1 + 1.70445e-06 Z_128_1_1 * Z_38_2_1
   + 0.1459301613793145 Z_128_1_1 * Z_134_1_1
   + 1.70445e-06 Z_128_1_2 * Z_38_1_2 + 1.70445e-06 Z_128_1_2 * Z_38_2_2
   + 0.1459301613793145 Z_128_1_2 * Z_134_1_2
   + 1.70445e-06 Z_128_1_3 * Z_38_1_3 + 1.70445e-06 Z_128_1_3 * Z_38_2_3
   + 0.1459301613793145 Z_128_1_3 * Z_134_1_3 ] / 2 
Subject To
 constraint1_1281: Z_128_1_0 + Z_128_1_1 + Z_128_1_2 + Z_128_1_3 <= 1
 constraint1_381: Z_38_1_0 + Z_38_1_1 + Z_38_1_2 + Z_38_1_3 <= 1
 constraint1_382: Z_38_2_0 + Z_38_2_1 + Z_38_2_2 + Z_38_2_3 <= 1
 constraint1_1341: Z_134_1_0 + Z_134_1_1 + Z_134_1_2 + Z_134_1_3 <= 1
 constraint2_1280: Z_128_1_0 <= 1
 constraint2_1281: Z_128_1_1 <= 1
 constraint2_1282: Z_128_1_2 <= 1
 constraint2_1283: Z_128_1_3 <= 1
 constraint2_380: Z_38_1_0 + Z_38_2_0 <= 1
 constraint2_381: Z_38_1_1 + Z_38_2_1 <= 1
 constraint2_382: Z_38_1_2 + Z_38_2_2 <= 1
 constraint2_383: Z_38_1_3 + Z_38_2_3 <= 1
 constraint2_870: <= 1
 constraint2_871: <= 1
 constraint2_872: <= 1
 constraint2_873: <= 1
 constraint2_350: <= 1
 constraint2_351: <= 1
 constraint2_352: <= 1
 constraint2_353: <= 1
 constraint2_1340: Z_134_1_0 <= 1
 constraint2_1341: Z_134_1_1 <= 1
 constraint2_1342: Z_134_1_2 <= 1
 constraint2_1343: Z_134_1_3 <= 1
Bounds
Binaries
 Z_128_1_0 Z_128_1_1 Z_128_1_2 Z_128_1_3 Z_38_1_0 Z_38_1_1 Z_38_1_2
 Z_38_1_3 Z_38_2_0 Z_38_2_1 Z_38_2_2 Z_38_2_3 Z_134_1_0 Z_134_1_1 Z_134_1_2
 Z_134_1_3
End
