ilp_joint_2/output/camouflage_ilp.sol
# Solution for model camouflage_srl_ilp
# Objective value = 1.3729628583637412e+00
Z_128_1_0 0
Z_128_1_1 1
Z_128_1_2 0
Z_128_1_3 0
Z_38_1_0 0
Z_38_1_1 0
Z_38_1_2 0
Z_38_1_3 1
Z_38_2_0 0
Z_38_2_1 0
Z_38_2_2 1
Z_38_2_3 0
Z_134_1_0 0
Z_134_1_1 1
Z_134_1_2 0
Z_134_1_3 0
